
******************************************************************************
This program contains Ipopt, a library for large-scale nonlinear optimization.
 Ipopt is released as open source code under the Eclipse Public License (EPL).
         For more information visit http://projects.coin-or.org/Ipopt
******************************************************************************

This is Ipopt version 3.13.1, running with linear solver mumps.
NOTE: Other linear solvers might be more efficient (see Ipopt documentation).

Number of nonzeros in equality constraint Jacobian...:     1087
Number of nonzeros in inequality constraint Jacobian.:      542
Number of nonzeros in Lagrangian Hessian.............:        0

Total number of variables............................:      169
                     variables with only lower bounds:        0
                variables with lower and upper bounds:      109
                     variables with only upper bounds:        0
Total number of equality constraints.................:      144
Total number of inequality constraints...............:      102
        inequality constraints with only lower bounds:      102
   inequality constraints with lower and upper bounds:        0
        inequality constraints with only upper bounds:        0

iter    objective    inf_pr   inf_du lg(mu)  ||d||  lg(rg) alpha_du alpha_pr  ls
   0  1.5000000e-01 5.00e+02 7.37e-01   0.0 0.00e+00    -  0.00e+00 0.00e+00   0
   1  1.4818713e-01 4.22e+02 2.29e+01  -0.4 1.06e+01    -  2.00e-02 1.57e-01f  1
   2  1.3796019e-01 1.21e+02 3.04e+01  -1.3 3.59e+00    -  3.31e-01 7.14e-01f  1
   3  1.4895073e-01 8.38e+00 1.17e+01  -1.2 1.90e+00    -  1.00e+00 9.31e-01h  1
   4  1.5300671e-01 5.66e+00 5.91e+00  -0.9 1.41e+00    -  9.89e-01 3.25e-01f  1
   5  1.5961708e-01 1.41e+00 2.37e+00  -1.1 4.79e-01    -  9.46e-01 7.52e-01f  1
   6  1.6123157e-01 4.26e-03 4.38e-01  -2.3 6.30e-02    -  9.90e-01 1.00e+00h  1
   7  1.6113374e-01 4.24e-04 9.75e-02  -3.1 8.53e-02    -  9.96e-01 1.00e+00h  1
   8  1.6084695e-01 5.77e-05 1.57e-02  -3.7 1.91e-02    -  9.99e-01 1.00e+00h  1
   9  1.5795945e-01 6.35e-03 1.49e-02  -4.2 1.71e-01    -  9.96e-01 1.00e+00h  1
iter    objective    inf_pr   inf_du lg(mu)  ||d||  lg(rg) alpha_du alpha_pr  ls
  10  1.5614805e-01 1.41e-02 5.63e-03  -4.3 2.70e-01    -  9.99e-01 1.00e+00h  1
  11  1.5506098e-01 5.20e-03 4.02e-03  -5.1 1.17e-01    -  9.99e-01 1.00e+00h  1
  12  1.5463127e-01 1.02e-02 2.02e-03  -5.3 3.94e-01    -  1.00e+00 9.95e-01h  1
  13  1.5524213e-01 2.22e-02 2.73e-03  -4.8 5.84e-01    -  1.00e+00 1.00e+00h  1
  14  1.5501322e-01 1.17e-02 2.11e-03  -4.9 4.27e-01    -  1.00e+00 1.00e+00h  1
  15  1.5455199e-01 2.19e-03 9.04e-04  -5.5 4.35e-01    -  9.98e-01 1.00e+00h  1
  16  1.5450445e-01 1.17e-03 4.74e-04  -5.7 4.05e-01    -  1.00e+00 9.87e-01H  1
  17  1.5445060e-01 1.36e-03 1.52e-04  -6.2 2.68e-01    -  1.00e+00 1.00e+00h  1
  18  1.5442284e-01 2.94e-04 8.28e-05  -6.9 1.89e-01    -  1.00e+00 1.00e+00h  1
  19  1.5442840e-01 9.35e-05 1.60e-04  -7.2 1.14e-01    -  1.00e+00 1.00e+00h  1
iter    objective    inf_pr   inf_du lg(mu)  ||d||  lg(rg) alpha_du alpha_pr  ls
  20  1.5443054e-01 2.08e-05 4.68e-05  -7.7 3.21e-02    -  1.00e+00 1.00e+00h  1

Number of Iterations....: 20

                                   (scaled)                 (unscaled)
Objective...............:   1.5443053977787363e-01    1.5443053977787363e-01
Dual infeasibility......:   4.6798778041620810e-05    4.6798778041620810e-05
Constraint violation....:   2.0787805249702919e-05    2.0787805249702919e-05
Complementarity.........:   3.6215534139794042e-08    3.6215534139794042e-08
Overall NLP error.......:   4.6798778041620810e-05    4.6798778041620810e-05


Number of objective function evaluations             = 22
Number of objective gradient evaluations             = 21
Number of equality constraint evaluations            = 22
Number of inequality constraint evaluations          = 22
Number of equality constraint Jacobian evaluations   = 21
Number of inequality constraint Jacobian evaluations = 21
Number of Lagrangian Hessian evaluations             = 0
Total CPU secs in IPOPT (w/o function evaluations)   =      0.483
Total CPU secs in NLP function evaluations           =      7.495

EXIT: Optimal Solution Found.
